WARNING: for repeatability, setting FPU to use double precision
============================[ Problem Statistics ]=============================
|                                                                             |
|  Number of variables:           100                                         |
|  Number of clauses:             449                                         |
|  Parse time:                   0.00 s                                       |
|  Eliminated clauses:           0.00 Mb                                      |
|  Simplification time:          0.00 s                                       |
|                                                                             |
============================[ Search Statistics ]==============================
| Conflicts |          ORIGINAL         |          LEARNT          | Progress |
|           |    Vars  Clauses Literals |    Limit  Clauses Lit/Cl |          |
===============================================================================
|       100 |      98      445     1352 |      163      100      7 |  0.010 % |
|       250 |      98      445     1352 |      179      166      5 |  0.070 % |
===============================================================================
restarts              : 3
conflicts             : 289            (inf /sec)
decisions             : 361            (0.00 % random) (inf /sec)
propagations          : 6163           (inf /sec)
conflict literals     : 1648           (22.01 % deleted)
Memory used           : 13.00 MB
CPU time              : 0 s

SATISFIABLE
